NAME : CMT07T.903050.tour
COMMENT : Cost = 0_903050
COMMENT : Found by LKH [Keld Helsgaun] Fri Sep 15 01:03:47 2017
TYPE : TOUR
DIMENSION : 86
TOUR_SECTION
1
28
16
58
14
55
53
35
68
86
8
36
15
60
20
9
47
79
5
46
30
6
48
49
31
85
74
2
43
65
23
63
69
81
33
51
19
56
26
10
80
38
21
71
61
72
37
83
39
66
67
12
54
77
7
34
44
42
57
24
64
82
27
59
11
32
40
73
13
78
3
29
62
70
22
75
76
84
52
17
50
25
4
45
41
18
-1
EOF
